p cnf 196 259
-1 -12 0
-7 -14 0
-16 -18 0
-19 -20 0
-21 -23 0
-25 -27 0
-29 -38 0
-33 -35 0
-44 -56 0
-45 -52 0
-46 -50 0
-46 -54 0
-50 -54 0
-62 -67 0
-71 -78 0
-74 -79 0
-90 -91 0
-92 -98 0
-105 -109 0
-114 -119 0
-120 -121 0
-132 -136 0
-133 -138 0
-145 -151 0
-155 -166 0
-157 -160 0
-164 -165 0
-169 -174 0
-170 -176 0
-185 -189 0
-186 -195 0
-186 -196 0
-195 -196 0
-43 -155 0
-71 -127 0
-71 -169 0
-127 -169 0
-30 -86 0
-100 -114 0
-3 -45 0
-87 -157 0
-172 -186 0
-19 -75 0
-33 -131 0
-20 -188 0
-62 -104 0
-76 -146 0
-90 -174 0
-7 -91 0
-35 -105 0
-35 -161 0
-105 -161 0
-8 -50 0
-8 -92 0
-50 -92 0
-106 -162 0
-120 -190 0
-23 -163 0
-51 -177 0
-38 -164 0
-52 -80 0
-95 -151 0
-40 -194 0
-54 -68 0
-82 -124 0
-138 -166 0
-27 -139 0
-28 -196 0
-56 -70 0
-84 -126 0
2 0
4 0
5 0
6 0
9 0
10 0
11 0
13 0
15 0
17 0
22 0
24 0
26 0
31 0
32 0
34 0
36 0
37 0
39 0
41 0
42 0
47 0
48 0
49 0
53 0
55 0
57 0
58 0
59 0
60 0
61 0
63 0
64 0
65 0
66 0
69 0
72 0
73 0
77 0
81 0
83 0
85 0
88 0
89 0
93 0
94 0
96 0
97 0
99 0
101 0
102 0
103 0
107 0
108 0
110 0
111 0
112 0
113 0
115 0
116 0
117 0
118 0
122 0
123 0
125 0
128 0
129 0
130 0
134 0
135 0
137 0
140 0
141 0
142 0
143 0
144 0
147 0
148 0
149 0
150 0
152 0
153 0
154 0
156 0
158 0
159 0
167 0
168 0
171 0
173 0
175 0
178 0
179 0
180 0
181 0
182 0
183 0
184 0
187 0
191 0
192 0
193 0
8 7 0
19 18 0
20 19 0
21 7 0
21 20 0
28 14 0
28 27 0
30 16 0
30 29 0
33 19 0
35 21 0
43 29 0
44 30 0
44 43 0
45 44 0
46 45 0
51 50 0
52 38 0
52 51 0
54 40 0
68 54 0
68 67 0
70 56 0
75 74 0
76 62 0
76 75 0
79 78 0
80 79 0
82 68 0
84 70 0
87 86 0
90 76 0
91 90 0
92 78 0
92 91 0
98 84 0
100 86 0
104 90 0
105 91 0
105 104 0
106 92 0
106 105 0
109 95 0
114 100 0
119 105 0
120 106 0
120 119 0
121 120 0
132 131 0
133 119 0
133 132 0
138 124 0
139 138 0
145 131 0
146 132 0
146 145 0
160 146 0
161 160 0
162 161 0
163 162 0
164 163 0
165 151 0
165 164 0
166 165 0
169 155 0
170 169 0
174 160 0
176 162 0
177 163 0
177 176 0
186 172 0
186 185 0
188 174 0
189 188 0
190 176 0
190 189 0
195 194 0
196 195 0
1 16 3 0
1 16 29 0
155 170 185 0
3 16 29 0
3 18 33 20 7 0
7 20 33 18 3 16 29 0
8 23 38 25 12 0
8 23 38 25 40 27 14 0
12 27 14 0
